w = 35;
n = 22;
measures = [|3, 3,
|3, 4,
|3, 5,
|3, 6,
|3, 7,
|3, 8,
|3, 9,
|3, 10,
|3, 12,
|3, 19,
|3, 22,
|4, 3,
|4, 4,
|4, 5,
|4, 6,
|4, 7,
|4, 8,
|4, 12,
|4, 17,
|4, 20,
|4, 23,
|14, 35,
|];
initial_x = [0, 3, 6, 9, 12, 15, 18, 21, 24, 27, 30, 0, 4, 8, 12, 16, 20, 24, 28, 0, 4, 8];
initial_y = [0, 0, 0, 0, 0, 0, 0, 0, 0, 0, 0, 22, 22, 22, 22, 22, 22, 22, 22, 39, 39, 39];